COMUNI = {
	todi,
	perugia,
	castiglione_del_lago,
	san_giustino,
	narni,
	orvieto,
	gubbio,
	spoleto,
	gualdo_tardino,
	foligno,
};

NUMERO_COMUNI = 10;

ABITANTI_PER_COMUNE = [15, 161, 15, 11, 17, 19, 30, 36, 14, 55];

STRADE_TRA_COMUNI = [|
	false, false, false, false, false, true, false, false, false, false |
	false, false, false, false, false, false, false, false, false, false |
	false, false, false, false, false, false, false, false, false, false |
	false, false, false, false, false, false, false, false, false, false |
	false, false, false, false, false, false, false, false, false, false |
	true, false, false, false, false, false, false, false, false, false |
	false, false, false, false, false, false, false, false, true, false |
	false, false, false, false, false, false, false, false, false, false |
	false, false, false, false, false, false, true, false, false, false |
	false, false, false, false, false, false, false, false, false, false |
|];

RICHIESTE = [|
	78, 213, 216, 253, 310 |
	415, 53, 296, 207, 1041 |
	212, 123, 771, 74, 88 |
	71, 464, 95, 456, 5 |
	70, 254, 289, 451, 33 |
	33, 19, 25, 214, 387 |
	14, 146, 9, 35, 201 |
	937, 268, 20, 128, 45 |
	187, 116, 250, 139, 25 |
	10, 31, 45, 27, 126 |
|];
